
Gurobi 10.0.0 (mac64[arm]) logging started Sun Jun 11 13:24:15 2023

Set parameter LogFile to value "octilinearBusRouting.log"
Set parameter MIPGap to value 0
Set parameter MIPGapAbs to value 0
Set parameter TimeLimit to value 36000
Gurobi Optimizer version 10.0.0 build v10.0.0rc2 (mac64[arm])

CPU model: Apple M1
Thread count: 8 physical cores, 8 logical processors, using up to 8 threads

Optimize a model with 3908 rows, 3009 columns and 12124 nonzeros
Model fingerprint: 0x13ee43b5
Model has 464 general constraints
Variable types: 0 continuous, 3009 integer (1544 binary)
Coefficient statistics:
  Matrix range     [1e+00, 1e+05]
  Objective range  [1e+00, 1e+00]
  Bounds range     [1e+00, 1e+05]
  RHS range        [1e+00, 1e+05]
Presolve removed 2370 rows and 1986 columns
Presolve time: 0.05s
Presolved: 1538 rows, 1023 columns, 5000 nonzeros
Variable types: 0 continuous, 1023 integer (625 binary)
Found heuristic solution: objective 12329.670842
Found heuristic solution: objective 8160.6591566

Root relaxation: objective 0.000000e+00, 443 iterations, 0.00 seconds (0.00 work units)

    Nodes    |    Current Node    |     Objective Bounds      |     Work
 Expl Unexpl |  Obj  Depth IntInf | Incumbent    BestBd   Gap | It/Node Time

     0     0    0.00000    0  122 8160.65916    0.00000   100%     -    0s
H    0     0                    6694.1196924    0.00000   100%     -    0s
H    0     0                    4940.8237354    0.00000   100%     -    0s
     0     0 2285.65698    0  195 4940.82374 2285.65698  53.7%     -    0s
     0     0 2331.04343    0  193 4940.82374 2331.04343  52.8%     -    0s
H    0     0                    4531.7312396 2331.04343  48.6%     -    0s
     0     0 2696.35247    0  107 4531.73124 2696.35247  40.5%     -    0s
     0     0 2696.35247    0  107 4531.73124 2696.35247  40.5%     -    0s
H    0     0                    4506.2724369 2696.35247  40.2%     -    0s
     0     0 2723.00576    0  125 4506.27244 2723.00576  39.6%     -    0s
     0     0 2723.00576    0  125 4506.27244 2723.00576  39.6%     -    0s
     0     0 2723.00576    0  140 4506.27244 2723.00576  39.6%     -    0s
H    0     0                    4405.1050481 2723.00576  38.2%     -    0s
     0     0 2723.00576    0  139 4405.10505 2723.00576  38.2%     -    0s
H    0     0                    4379.6307345 2723.00576  37.8%     -    0s
H    0     0                    4170.3455967 2730.21460  34.5%     -    0s
H    0     0                    4000.3283528 2730.21460  31.8%     -    0s
     0     0 2730.21460    0  160 4000.32835 2730.21460  31.8%     -    0s
H    0     0                    3986.1862172 2730.21460  31.5%     -    0s
     0     0 2730.21460    0  160 3986.18622 2730.21460  31.5%     -    0s
H    0     0                    3776.2156544 2730.49692  27.7%     -    0s
     0     2 2730.49692    0  160 3776.21565 2730.49692  27.7%     -    0s
H 1029   587                    3762.6988437 3023.04694  19.7%   7.4    0s
H 1167   616                    3761.6988437 3036.87146  19.3%   7.4    0s
H 2211   965                    3760.0003589 3064.00362  18.5%   7.5    0s
H 2216   953                    3754.6643559 3064.00362  18.4%   7.5    0s
H 3005  1226                    3752.9658711 3263.16226  13.1%   7.3    0s

Cutting planes:
  Learned: 3
  Gomory: 9
  Implied bound: 3
  MIR: 8
  Flow cover: 28
  GUB cover: 1
  RLT: 3
  Relax-and-lift: 4

Explored 4586 nodes (40769 simplex iterations) in 2.29 seconds (1.65 work units)
Thread count was 8 (of 8 available processors)

Solution count 10: 3752.97 3754.66 3760 ... 4379.63

Optimal solution found (tolerance 0.00e+00)
Best objective 3.752965871052e+03, best bound 3.752965871052e+03, gap 0.0000%
Warning: general constraint 3911 and general constraint 3916 have the same name "v0->v1_o1_enter->leaveabsX"

Gurobi 10.0.0 (mac64[arm]) logging started Sun Jun 11 13:24:41 2023

Set parameter LogFile to value "octilinearBusRouting.log"
Set parameter MIPGap to value 0
Set parameter MIPGapAbs to value 0
Set parameter TimeLimit to value 36000
Gurobi Optimizer version 10.0.0 build v10.0.0rc2 (mac64[arm])

CPU model: Apple M1
Thread count: 8 physical cores, 8 logical processors, using up to 8 threads

Optimize a model with 6690 rows, 6212 columns and 17942 nonzeros
Model fingerprint: 0x03649b80
Model has 1008 general constraints
Variable types: 0 continuous, 6212 integer (2751 binary)
Coefficient statistics:
  Matrix range     [1e+00, 1e+05]
  Objective range  [1e+00, 1e+00]
  Bounds range     [1e+00, 1e+05]
  RHS range        [1e+00, 1e+05]
Presolve removed 1838 rows and 3175 columns
Presolve time: 0.05s
Presolved: 4852 rows, 3037 columns, 13849 nonzeros
Variable types: 0 continuous, 3037 integer (1304 binary)

Root relaxation: objective 0.000000e+00, 1154 iterations, 0.01 seconds (0.01 work units)

    Nodes    |    Current Node    |     Objective Bounds      |     Work
 Expl Unexpl |  Obj  Depth IntInf | Incumbent    BestBd   Gap | It/Node Time

     0     0    0.00000    0   23          -    0.00000      -     -    0s
H    0     0                    14714.000000    0.00000   100%     -    0s
H    0     0                    12843.000000    0.00000   100%     -    0s
H    0     0                    11447.000000    0.00000   100%     -    0s
     0     0    0.00000    0   19 11447.0000    0.00000   100%     -    0s
     0     0    0.00000    0   18 11447.0000    0.00000   100%     -    0s
H    0     0                    10882.000000    0.00000   100%     -    0s
     0     0    0.00000    0   19 10882.0000    0.00000   100%     -    0s
     0     0    0.00000    0   19 10882.0000    0.00000   100%     -    0s
H    0     0                    7530.0000000 2028.00000  73.1%     -    0s
     0     0 2028.00000    0   22 7530.00000 2028.00000  73.1%     -    0s
     0     0 2028.00000    0   28 7530.00000 2028.00000  73.1%     -    0s
H    0     0                    5060.0000000 2028.00000  59.9%     -    0s
H    0     0                    4392.0000000 2028.00000  53.8%     -    0s
     0     0 2028.00000    0   24 4392.00000 2028.00000  53.8%     -    0s
H    0     0                    4282.0000000 2028.00000  52.6%     -    0s
H    0     0                    4281.0000000 2028.00000  52.6%     -    0s
     0     0 2028.00000    0   24 4281.00000 2028.00000  52.6%     -    0s
     0     0 2028.00000    0   25 4281.00000 2028.00000  52.6%     -    0s
     0     0 2028.00000    0   22 4281.00000 2028.00000  52.6%     -    0s
     0     2 2028.00000    0   22 4281.00000 2028.00000  52.6%     -    0s
H  763   449                    4275.0000000 2028.00000  52.6%  35.0    0s
H  764   445                    4138.0000000 2028.00000  51.0%  35.2    0s
H 3939  1285                    4132.0000000 2028.00000  50.9%  51.9    2s
  9862   950 2887.00000   22   70 4132.00000 2030.00000  50.9%  54.1    5s
 21214   336 3731.22330   27   49 4132.00000 3204.53317  22.4%  53.0   10s

Cutting planes:
  Gomory: 10
  MIR: 6
  Relax-and-lift: 2

Explored 22874 nodes (1206512 simplex iterations) in 10.48 seconds (12.21 work units)
Thread count was 8 (of 8 available processors)

Solution count 10: 4132 4138 4275 ... 11447

Optimal solution found (tolerance 0.00e+00)
Best objective 4.132000000000e+03, best bound 4.132000000000e+03, gap 0.0000%

Gurobi 10.0.0 (mac64[arm]) logging started Sun Jun 11 13:27:46 2023

Set parameter LogFile to value "octilinearBusRouting.log"
Set parameter MIPGap to value 0
Set parameter MIPGapAbs to value 0
Set parameter TimeLimit to value 36000
Gurobi Optimizer version 10.0.0 build v10.0.0rc2 (mac64[arm])

CPU model: Apple M1
Thread count: 8 physical cores, 8 logical processors, using up to 8 threads

Optimize a model with 3908 rows, 3009 columns and 12124 nonzeros
Model fingerprint: 0x13ee43b5
Model has 464 general constraints
Variable types: 0 continuous, 3009 integer (1544 binary)
Coefficient statistics:
  Matrix range     [1e+00, 1e+05]
  Objective range  [1e+00, 1e+00]
  Bounds range     [1e+00, 1e+05]
  RHS range        [1e+00, 1e+05]
Presolve removed 2370 rows and 1986 columns
Presolve time: 0.05s
Presolved: 1538 rows, 1023 columns, 5000 nonzeros
Variable types: 0 continuous, 1023 integer (625 binary)
Found heuristic solution: objective 12329.670842
Found heuristic solution: objective 8160.6591566

Root relaxation: objective 0.000000e+00, 443 iterations, 0.01 seconds (0.00 work units)

    Nodes    |    Current Node    |     Objective Bounds      |     Work
 Expl Unexpl |  Obj  Depth IntInf | Incumbent    BestBd   Gap | It/Node Time

     0     0    0.00000    0  122 8160.65916    0.00000   100%     -    0s
H    0     0                    6694.1196924    0.00000   100%     -    0s
H    0     0                    4940.8237354    0.00000   100%     -    0s
     0     0 2285.65698    0  195 4940.82374 2285.65698  53.7%     -    0s
     0     0 2331.04343    0  193 4940.82374 2331.04343  52.8%     -    0s
H    0     0                    4531.7312396 2331.04343  48.6%     -    0s
     0     0 2696.35247    0  107 4531.73124 2696.35247  40.5%     -    0s
     0     0 2696.35247    0  107 4531.73124 2696.35247  40.5%     -    0s
H    0     0                    4506.2724369 2696.35247  40.2%     -    0s
     0     0 2723.00576    0  125 4506.27244 2723.00576  39.6%     -    0s
     0     0 2723.00576    0  125 4506.27244 2723.00576  39.6%     -    0s
     0     0 2723.00576    0  140 4506.27244 2723.00576  39.6%     -    0s
H    0     0                    4405.1050481 2723.00576  38.2%     -    0s
     0     0 2723.00576    0  139 4405.10505 2723.00576  38.2%     -    0s
H    0     0                    4379.6307345 2723.00576  37.8%     -    0s
H    0     0                    4170.3455967 2730.21460  34.5%     -    0s
H    0     0                    4000.3283528 2730.21460  31.8%     -    0s
     0     0 2730.21460    0  160 4000.32835 2730.21460  31.8%     -    0s
H    0     0                    3986.1862172 2730.21460  31.5%     -    0s
     0     0 2730.21460    0  160 3986.18622 2730.21460  31.5%     -    0s
H    0     0                    3776.2156544 2730.49692  27.7%     -    0s
     0     2 2730.49692    0  160 3776.21565 2730.49692  27.7%     -    0s
H 1029   587                    3762.6988437 3023.04694  19.7%   7.4    0s
H 1167   616                    3761.6988437 3036.87146  19.3%   7.4    0s
H 2211   965                    3760.0003589 3064.00362  18.5%   7.5    0s
H 2216   953                    3754.6643559 3064.00362  18.4%   7.5    0s
H 3005  1226                    3752.9658711 3263.16226  13.1%   7.3    0s

Cutting planes:
  Learned: 3
  Gomory: 9
  Implied bound: 3
  MIR: 8
  Flow cover: 28
  GUB cover: 1
  RLT: 3
  Relax-and-lift: 4

Explored 4586 nodes (40769 simplex iterations) in 2.02 seconds (1.65 work units)
Thread count was 8 (of 8 available processors)

Solution count 10: 3752.97 3754.66 3760 ... 4379.63

Optimal solution found (tolerance 0.00e+00)
Best objective 3.752965871052e+03, best bound 3.752965871052e+03, gap 0.0000%
Warning: general constraint 3911 and general constraint 3916 have the same name "v0->v1_o1_enter->leaveabsX"

Gurobi 10.0.0 (mac64[arm]) logging started Sun Jun 11 13:28:36 2023

Set parameter LogFile to value "octilinearBusRouting.log"
Set parameter MIPGap to value 0
Set parameter MIPGapAbs to value 0
Set parameter TimeLimit to value 36000
Gurobi Optimizer version 10.0.0 build v10.0.0rc2 (mac64[arm])

CPU model: Apple M1
Thread count: 8 physical cores, 8 logical processors, using up to 8 threads

Optimize a model with 6690 rows, 6212 columns and 17942 nonzeros
Model fingerprint: 0x03649b80
Model has 1008 general constraints
Variable types: 0 continuous, 6212 integer (2751 binary)
Coefficient statistics:
  Matrix range     [1e+00, 1e+05]
  Objective range  [1e+00, 1e+00]
  Bounds range     [1e+00, 1e+05]
  RHS range        [1e+00, 1e+05]
Presolve removed 1838 rows and 3175 columns
Presolve time: 0.04s
Presolved: 4852 rows, 3037 columns, 13849 nonzeros
Variable types: 0 continuous, 3037 integer (1304 binary)

Root relaxation: objective 0.000000e+00, 1154 iterations, 0.01 seconds (0.01 work units)

    Nodes    |    Current Node    |     Objective Bounds      |     Work
 Expl Unexpl |  Obj  Depth IntInf | Incumbent    BestBd   Gap | It/Node Time

     0     0    0.00000    0   23          -    0.00000      -     -    0s
H    0     0                    14714.000000    0.00000   100%     -    0s
H    0     0                    12843.000000    0.00000   100%     -    0s
H    0     0                    11447.000000    0.00000   100%     -    0s
     0     0    0.00000    0   19 11447.0000    0.00000   100%     -    0s
     0     0    0.00000    0   18 11447.0000    0.00000   100%     -    0s
H    0     0                    10882.000000    0.00000   100%     -    0s
     0     0    0.00000    0   19 10882.0000    0.00000   100%     -    0s
     0     0    0.00000    0   19 10882.0000    0.00000   100%     -    0s
H    0     0                    7530.0000000 2028.00000  73.1%     -    0s
     0     0 2028.00000    0   22 7530.00000 2028.00000  73.1%     -    0s
     0     0 2028.00000    0   28 7530.00000 2028.00000  73.1%     -    0s
H    0     0                    5060.0000000 2028.00000  59.9%     -    0s
H    0     0                    4392.0000000 2028.00000  53.8%     -    0s
     0     0 2028.00000    0   24 4392.00000 2028.00000  53.8%     -    0s
H    0     0                    4282.0000000 2028.00000  52.6%     -    0s
H    0     0                    4281.0000000 2028.00000  52.6%     -    0s
     0     0 2028.00000    0   24 4281.00000 2028.00000  52.6%     -    0s
     0     0 2028.00000    0   25 4281.00000 2028.00000  52.6%     -    0s
     0     0 2028.00000    0   22 4281.00000 2028.00000  52.6%     -    0s
     0     2 2028.00000    0   22 4281.00000 2028.00000  52.6%     -    0s
H  763   449                    4275.0000000 2028.00000  52.6%  35.0    0s
H  764   445                    4138.0000000 2028.00000  51.0%  35.2    0s
H 3939  1285                    4132.0000000 2028.00000  50.9%  51.9    2s
 10091   979     cutoff   32      4132.00000 2030.00000  50.9%  54.1    5s
 21214   336 3731.22330   27   49 4132.00000 3204.53317  22.4%  53.0   10s

Cutting planes:
  Gomory: 10
  MIR: 6
  Relax-and-lift: 2

Explored 22874 nodes (1206512 simplex iterations) in 10.40 seconds (12.21 work units)
Thread count was 8 (of 8 available processors)

Solution count 10: 4132 4138 4275 ... 11447

Optimal solution found (tolerance 0.00e+00)
Best objective 4.132000000000e+03, best bound 4.132000000000e+03, gap 0.0000%

Gurobi 10.0.0 (mac64[arm]) logging started Sun Jun 11 13:29:11 2023

Set parameter LogFile to value "octilinearBusRouting.log"
Set parameter MIPGap to value 0
Set parameter MIPGapAbs to value 0
Set parameter TimeLimit to value 36000
Gurobi Optimizer version 10.0.0 build v10.0.0rc2 (mac64[arm])

CPU model: Apple M1
Thread count: 8 physical cores, 8 logical processors, using up to 8 threads

Optimize a model with 3908 rows, 3009 columns and 12124 nonzeros
Model fingerprint: 0xfd8517d7
Model has 464 general constraints
Variable types: 0 continuous, 3009 integer (1544 binary)
Coefficient statistics:
  Matrix range     [1e+00, 1e+05]
  Objective range  [1e+00, 1e+00]
  Bounds range     [1e+00, 1e+05]
  RHS range        [1e+00, 1e+05]
Presolve removed 2370 rows and 1986 columns
Presolve time: 0.03s
Presolved: 1538 rows, 1023 columns, 5000 nonzeros
Variable types: 0 continuous, 1023 integer (625 binary)
Found heuristic solution: objective 11769.428202
Found heuristic solution: objective 8160.6591566

Root relaxation: objective 0.000000e+00, 419 iterations, 0.00 seconds (0.00 work units)

    Nodes    |    Current Node    |     Objective Bounds      |     Work
 Expl Unexpl |  Obj  Depth IntInf | Incumbent    BestBd   Gap | It/Node Time

     0     0    0.00000    0  107 8160.65916    0.00000   100%     -    0s
H    0     0                    6694.1196924    0.00000   100%     -    0s
     0     0 2030.28121    0  132 6694.11969 2030.28121  69.7%     -    0s
H    0     0                    5483.3316703 2030.28121  63.0%     -    0s
H    0     0                    4087.3800846 2030.28121  50.3%     -    0s
     0     0 2030.28121    0  126 4087.38008 2030.28121  50.3%     -    0s
     0     0 2731.09665    0  162 4087.38008 2731.09665  33.2%     -    0s
     0     0 2731.09665    0  159 4087.38008 2731.09665  33.2%     -    0s
H    0     0                    3837.0592334 2731.09665  28.8%     -    0s
     0     0 2913.05987    0  114 3837.05923 2913.05987  24.1%     -    0s
     0     0 2913.13232    0  126 3837.05923 2913.13232  24.1%     -    0s
     0     0 2934.94663    0  165 3837.05923 2934.94663  23.5%     -    0s
     0     0 2934.94663    0  142 3837.05923 2934.94663  23.5%     -    0s
     0     0 2934.94663    0  146 3837.05923 2934.94663  23.5%     -    0s
     0     0 2934.94663    0  142 3837.05923 2934.94663  23.5%     -    0s
     0     0 2934.94663    0  149 3837.05923 2934.94663  23.5%     -    0s
H    0     0                    3811.2358569 2934.94663  23.0%     -    0s
     0     0 2936.87133    0  166 3811.23586 2936.87133  22.9%     -    0s
     0     0 2936.87133    0  164 3811.23586 2936.87133  22.9%     -    0s
H    0     0                    3775.9414844 2937.07539  22.2%     -    0s
     0     2 2937.07539    0  162 3775.94148 2937.07539  22.2%     -    0s
H   83    89                    3761.7009358 3286.34812  12.6%  19.4    0s
*  419   315              31    3759.3506474 3328.70321  11.5%  10.7    0s
*  437   315              28    3752.9658711 3328.70321  11.3%  10.4    0s

Cutting planes:
  Learned: 3
  Gomory: 9
  Cover: 3
  Implied bound: 3
  Projected implied bound: 1
  Clique: 2
  MIR: 7
  Flow cover: 27
  RLT: 2
  Relax-and-lift: 4

Explored 4600 nodes (46477 simplex iterations) in 2.04 seconds (1.68 work units)
Thread count was 8 (of 8 available processors)

Solution count 10: 3752.97 3759.35 3761.7 ... 8160.66

Optimal solution found (tolerance 0.00e+00)
Best objective 3.752965871052e+03, best bound 3.752965871052e+03, gap 0.0000%
Warning: general constraint 3911 and general constraint 3916 have the same name "v0->v1_o1_enter->leaveabsX"

Gurobi 10.0.0 (mac64[arm]) logging started Sun Jun 11 13:39:56 2023

Set parameter LogFile to value "octilinearBusRouting.log"
Set parameter MIPGap to value 0
Set parameter MIPGapAbs to value 0
Set parameter TimeLimit to value 36000
Gurobi Optimizer version 10.0.0 build v10.0.0rc2 (mac64[arm])

CPU model: Apple M1
Thread count: 8 physical cores, 8 logical processors, using up to 8 threads

Optimize a model with 3908 rows, 3009 columns and 12124 nonzeros
Model fingerprint: 0x13ee43b5
Model has 464 general constraints
Variable types: 0 continuous, 3009 integer (1544 binary)
Coefficient statistics:
  Matrix range     [1e+00, 1e+05]
  Objective range  [1e+00, 1e+00]
  Bounds range     [1e+00, 1e+05]
  RHS range        [1e+00, 1e+05]
Presolve removed 2370 rows and 1986 columns
Presolve time: 0.03s
Presolved: 1538 rows, 1023 columns, 5000 nonzeros
Variable types: 0 continuous, 1023 integer (625 binary)
Found heuristic solution: objective 12329.670842
Found heuristic solution: objective 8160.6591566

Root relaxation: objective 0.000000e+00, 443 iterations, 0.00 seconds (0.00 work units)

    Nodes    |    Current Node    |     Objective Bounds      |     Work
 Expl Unexpl |  Obj  Depth IntInf | Incumbent    BestBd   Gap | It/Node Time

     0     0    0.00000    0  122 8160.65916    0.00000   100%     -    0s
H    0     0                    6694.1196924    0.00000   100%     -    0s
H    0     0                    4940.8237354    0.00000   100%     -    0s
     0     0 2285.65698    0  195 4940.82374 2285.65698  53.7%     -    0s
     0     0 2331.04343    0  193 4940.82374 2331.04343  52.8%     -    0s
H    0     0                    4531.7312396 2331.04343  48.6%     -    0s
     0     0 2696.35247    0  107 4531.73124 2696.35247  40.5%     -    0s
     0     0 2696.35247    0  107 4531.73124 2696.35247  40.5%     -    0s
H    0     0                    4506.2724369 2696.35247  40.2%     -    0s
     0     0 2723.00576    0  125 4506.27244 2723.00576  39.6%     -    0s
     0     0 2723.00576    0  125 4506.27244 2723.00576  39.6%     -    0s
     0     0 2723.00576    0  140 4506.27244 2723.00576  39.6%     -    0s
H    0     0                    4405.1050481 2723.00576  38.2%     -    0s
     0     0 2723.00576    0  139 4405.10505 2723.00576  38.2%     -    0s
H    0     0                    4379.6307345 2723.00576  37.8%     -    0s
H    0     0                    4170.3455967 2730.21460  34.5%     -    0s
H    0     0                    4000.3283528 2730.21460  31.8%     -    0s
     0     0 2730.21460    0  160 4000.32835 2730.21460  31.8%     -    0s
H    0     0                    3986.1862172 2730.21460  31.5%     -    0s
     0     0 2730.21460    0  160 3986.18622 2730.21460  31.5%     -    0s
H    0     0                    3776.2156544 2730.49692  27.7%     -    0s
     0     2 2730.49692    0  160 3776.21565 2730.49692  27.7%     -    0s
H 1029   587                    3762.6988437 3023.04694  19.7%   7.4    0s
H 1167   616                    3761.6988437 3036.87146  19.3%   7.4    0s
H 2211   965                    3760.0003589 3064.00362  18.5%   7.5    0s
H 2216   953                    3754.6643559 3064.00362  18.4%   7.5    0s
H 3005  1226                    3752.9658711 3263.16226  13.1%   7.3    0s

Cutting planes:
  Learned: 3
  Gomory: 9
  Implied bound: 3
  MIR: 8
  Flow cover: 28
  GUB cover: 1
  RLT: 3
  Relax-and-lift: 4

Explored 4586 nodes (40769 simplex iterations) in 2.03 seconds (1.65 work units)
Thread count was 8 (of 8 available processors)

Solution count 10: 3752.97 3754.66 3760 ... 4379.63

Optimal solution found (tolerance 0.00e+00)
Best objective 3.752965871052e+03, best bound 3.752965871052e+03, gap 0.0000%
Warning: general constraint 3911 and general constraint 3916 have the same name "v0->v1_o1_enter->leaveabsX"
